(set-info :Origin "This instance was generated by: BanditFuzz-- an RL fuzzer for SMT solvers" )
(set-info :Author "Joe Scott, Fed Mora, Vijay Ganesh" )
(set-info :Contact "Joe Scott, joseph.scott@uwaterloo.ca")
; solvers/z3.sh
; 	time => 1.0977144241333008
; 	answer => sat
; solvers/bitwuzla.sh
; 	time => 0.41619205474853516
; 	answer => sat
; solvers/cvc4.sh
; 	time => 0.08267807960510254
; 	answer => err
(set-logic QF_BV)
(declare-const bool_0 Bool)
(declare-const bool_1 Bool)
(declare-const bool_2 Bool)
(declare-const bool_3 Bool)
(declare-const bool_4 Bool)
(declare-const bv_0 (_ BitVec 32))
(declare-const bv_1 (_ BitVec 32))
(declare-const bv_2 (_ BitVec 32))
(declare-const bv_3 (_ BitVec 32))
(declare-const bv_4 (_ BitVec 32))
(assert (bvuge (bvxnor (bvudiv #x89bb201f  bv_3) (bvor #xc2e86496  #x2e1afe3c )) (bvand (bvsdiv bv_0 bv_2) (bvsmod bv_3 bv_4))))
(assert (=> (or (or false bool_3) (bvugt bv_1 bv_1)) (bvule (bvsub #xdc8731f9  bv_2) (bvurem bv_2 #x5835e844 ))))
(assert (not (bvuge (bvsub bv_0 #x29d18400 ) (bvmul #xc49419e1  #xaf1bf0ed ))))
(assert (bvsge (bvmul (bvadd bv_3 bv_4) (bvnor bv_3 bv_0)) (bvnand (bvsmod #xf2b2fe7b  bv_0) (bvurem bv_3 #xba483b81 ))))
(assert (bvslt (bvxnor (bvnor #x965ca380  #xdd2931a9 ) (bvudiv bv_0 bv_2)) (bvmul (bvxor #x7dbb4fe7  #x88e3f11d ) (bvsdiv #xf02bf751  bv_1))))
(check-sat)
(exit)
